c Result of efficient AIG-to-CNF conversion using package CNF
p cnf 502 1823
-2 3 -387 0
-2 440 3 413 0
2 -3 0
2 -440 387 0
2 387 -413 0
3 -439 4 0
3 4 217 -223 0
-3 -4 0
-3 439 223 0
-3 439 -217 0
-4 439 -191 0
-4 439 -181 0
-4 439 5 0
4 -439 0
4 -5 181 191 0
-5 497 -498 139 0
-5 497 498 6 0
5 -497 0
5 -498 -139 0
5 498 -6 0
6 499 -7 0
6 -499 -110 125 0
-6 -499 110 0
-6 499 7 0
-6 -499 -125 0
7 500 -8 0
7 -500 -79 0
-7 -500 79 0
-7 500 8 0
8 -501 -50 0
8 501 9 -20 0
-8 -501 50 0
-8 501 -9 0
-8 501 20 0
-9 10 12 15 16 0
9 -16 0
9 -10 0
9 -15 0
9 -12 0
-10 461 462 11 0
10 -11 0
10 -462 0
10 -461 0
-11 457 458 459 460 0
11 -460 0
11 -459 0
11 -457 0
11 -458 0
-12 463 464 13 14 0
12 -463 0
12 -14 0
12 -13 0
12 -464 0
-13 453 454 455 456 0
13 -456 0
13 -455 0
13 -453 0
13 -454 0
-14 451 452 0
14 -451 0
14 -452 0
-15 449 450 0
15 -449 0
15 -450 0
-16 17 18 19 0
16 -17 0
16 -18 0
16 -19 0
-17 445 446 447 448 0
17 -448 0
17 -447 0
17 -445 0
17 -446 0
-18 438 439 440 441 0
18 -441 0
18 -440 0
18 -438 0
18 -439 0
-19 442 443 444 0
19 -442 0
19 -444 0
19 -443 0
-20 465 21 0
-20 -465 36 0
20 -465 -36 0
20 465 -21 0
-21 466 22 0
-21 -466 29 0
21 -466 -29 0
21 466 -22 0
-22 467 23 0
-22 -467 26 0
22 -467 -26 0
22 467 -23 0
-23 468 25 0
-23 -468 24 0
23 -468 -24 0
23 468 -25 0
24 469 -473 0
24 -469 -474 0
-24 -469 474 0
-24 469 473 0
25 469 -471 0
25 -469 -472 0
-25 -469 472 0
-25 469 471 0
26 468 -27 0
26 -468 -28 0
-26 -468 28 0
-26 468 27 0
27 469 -475 0
27 -469 -476 0
-27 -469 476 0
-27 469 475 0
28 469 -477 0
28 -469 -478 0
-28 -469 478 0
-28 469 477 0
29 467 -30 0
29 -467 -33 0
-29 -467 33 0
-29 467 30 0
30 468 -31 0
30 -468 -32 0
-30 -468 32 0
-30 468 31 0
31 469 -479 0
31 -469 -480 0
-31 -469 480 0
-31 469 479 0
32 469 -481 0
32 -469 -482 0
-32 -469 482 0
-32 469 481 0
33 468 -34 0
33 -468 -35 0
-33 -468 35 0
-33 468 34 0
34 469 -483 0
34 -469 -484 0
-34 -469 484 0
-34 469 483 0
35 469 -485 0
35 -469 -486 0
-35 -469 486 0
-35 469 485 0
36 466 -37 0
36 -466 -44 0
-36 -466 44 0
-36 466 37 0
37 467 -38 0
37 -467 -41 0
-37 -467 41 0
-37 467 38 0
38 468 -39 0
38 -468 -40 0
-38 -468 40 0
-38 468 39 0
39 469 -487 0
39 -469 -488 0
-39 -469 488 0
-39 469 487 0
40 469 -489 0
40 -469 -490 0
-40 -469 490 0
-40 469 489 0
41 468 -42 0
41 -468 -43 0
-41 -468 43 0
-41 468 42 0
42 469 -491 0
42 -469 -492 0
-42 -469 492 0
-42 469 491 0
43 469 -493 0
43 -469 -494 0
-43 -469 494 0
-43 469 493 0
44 467 -45 0
44 -467 -48 0
-44 -467 48 0
-44 467 45 0
45 468 -46 0
45 -468 -47 0
-45 -468 47 0
-45 468 46 0
46 469 -495 0
46 -469 -496 0
-46 -469 496 0
-46 469 495 0
47 469 -497 0
47 -469 -498 0
-47 -469 498 0
-47 469 497 0
48 468 -49 0
48 -468 469 -501 0
-48 -468 -469 0
-48 468 49 0
-48 -468 501 0
49 469 -499 0
49 -469 -500 0
-49 -469 500 0
-49 469 499 0
50 -465 9 -66 0
50 465 9 -51 0
-50 -9 0
-50 -465 66 0
-50 465 51 0
-51 466 52 0
-51 -466 59 0
51 -466 -59 0
51 466 -52 0
-52 467 53 0
-52 -467 56 0
52 -467 -56 0
52 467 -53 0
-53 468 55 0
-53 -468 54 0
53 -468 -54 0
53 468 -55 0
54 469 -474 0
54 -469 -475 0
-54 -469 475 0
-54 469 474 0
55 469 -472 0
55 -469 -473 0
-55 -469 473 0
-55 469 472 0
56 468 -57 0
56 -468 -58 0
-56 -468 58 0
-56 468 57 0
57 469 -476 0
57 -469 -477 0
-57 -469 477 0
-57 469 476 0
58 469 -478 0
58 -469 -479 0
-58 -469 479 0
-58 469 478 0
59 467 -60 0
59 -467 -63 0
-59 -467 63 0
-59 467 60 0
60 468 -61 0
60 -468 -62 0
-60 -468 62 0
-60 468 61 0
61 469 -480 0
61 -469 -481 0
-61 -469 481 0
-61 469 480 0
62 469 -482 0
62 -469 -483 0
-62 -469 483 0
-62 469 482 0
63 468 -64 0
63 -468 -65 0
-63 -468 65 0
-63 468 64 0
64 469 -484 0
64 -469 -485 0
-64 -469 485 0
-64 469 484 0
65 469 -486 0
65 -469 -487 0
-65 -469 487 0
-65 469 486 0
66 466 -67 0
66 -466 -74 0
-66 -466 74 0
-66 466 67 0
67 467 -68 0
67 -467 -71 0
-67 -467 71 0
-67 467 68 0
68 468 -69 0
68 -468 -70 0
-68 -468 70 0
-68 468 69 0
69 469 -488 0
69 -469 -489 0
-69 -469 489 0
-69 469 488 0
70 469 -490 0
70 -469 -491 0
-70 -469 491 0
-70 469 490 0
71 468 -72 0
71 -468 -73 0
-71 -468 73 0
-71 468 72 0
72 469 -492 0
72 -469 -493 0
-72 -469 493 0
-72 469 492 0
73 469 -494 0
73 -469 -495 0
-73 -469 495 0
-73 469 494 0
74 467 -75 0
74 -467 -78 0
-74 -467 78 0
-74 467 75 0
75 468 -76 0
75 -468 -77 0
-75 -468 77 0
-75 468 76 0
76 469 -496 0
76 -469 -497 0
-76 -469 497 0
-76 469 496 0
77 469 -498 0
77 -469 -499 0
-77 -469 499 0
-77 469 498 0
78 468 -469 -501 0
78 468 469 -500 0
-78 -468 0
-78 -469 501 0
-78 469 500 0
79 501 -80 0
79 -501 -95 0
-79 -501 95 0
-79 501 80 0
80 -465 9 -88 0
80 465 9 -81 0
-80 -9 0
-80 -465 88 0
-80 465 81 0
-81 466 82 0
-81 -466 85 0
81 -466 -85 0
81 466 -82 0
-82 467 83 0
-82 -467 84 0
82 -467 -84 0
82 467 -83 0
-83 -468 27 0
-83 468 24 0
83 468 -24 0
83 -468 -27 0
84 468 -28 0
84 -468 -31 0
-84 -468 31 0
-84 468 28 0
85 467 -86 0
85 -467 -87 0
-85 -467 87 0
-85 467 86 0
86 468 -32 0
86 -468 -34 0
-86 -468 34 0
-86 468 32 0
87 468 -35 0
87 -468 -39 0
-87 -468 39 0
-87 468 35 0
88 466 -89 0
88 -466 -92 0
-88 -466 92 0
-88 466 89 0
89 467 -90 0
89 -467 -91 0
-89 -467 91 0
-89 467 90 0
90 468 -40 0
90 -468 -42 0
-90 -468 42 0
-90 468 40 0
91 468 -43 0
91 -468 -46 0
-91 -468 46 0
-91 468 43 0
92 467 -93 0
92 -467 -94 0
-92 -467 94 0
-92 467 93 0
93 468 -47 0
93 -468 -49 0
-93 -468 49 0
-93 468 47 0
94 468 469 -501 0
-94 501 0
-94 -469 0
-94 -468 0
95 -465 9 -103 0
95 465 9 -96 0
-95 -9 0
-95 -465 103 0
-95 465 96 0
-96 466 97 0
-96 -466 100 0
96 -466 -100 0
96 466 -97 0
-97 467 99 0
-97 -467 98 0
97 -467 -98 0
97 467 -99 0
98 468 -58 0
98 -468 -61 0
-98 -468 61 0
-98 468 58 0
99 468 -54 0
99 -468 -57 0
-99 -468 57 0
-99 468 54 0
100 467 -101 0
100 -467 -102 0
-100 -467 102 0
-100 467 101 0
101 468 -62 0
101 -468 -64 0
-101 -468 64 0
-101 468 62 0
102 468 -65 0
102 -468 -69 0
-102 -468 69 0
-102 468 65 0
103 466 -104 0
103 -466 -107 0
-103 -466 107 0
-103 466 104 0
104 467 -105 0
104 -467 -106 0
-104 -467 106 0
-104 467 105 0
105 468 -70 0
105 -468 -72 0
-105 -468 72 0
-105 468 70 0
106 468 -73 0
106 -468 -76 0
-106 -468 76 0
-106 468 73 0
107 467 -108 0
-107 -467 0
-107 108 0
108 468 -77 0
108 -468 -109 0
-108 -468 109 0
-108 468 77 0
109 469 -500 0
109 -469 -501 0
-109 -469 501 0
-109 469 500 0
-110 500 -501 118 0
-110 500 501 111 0
110 -500 0
110 -501 -118 0
110 501 -111 0
111 -465 9 -115 0
111 465 9 -112 0
-111 -9 0
-111 -465 115 0
-111 465 112 0
-112 466 113 0
-112 -466 114 0
112 -466 -114 0
112 466 -113 0
-113 -467 30 0
-113 467 26 0
113 467 -26 0
113 -467 -30 0
114 467 -33 0
114 -467 -38 0
-114 -467 38 0
-114 467 33 0
115 466 -116 0
115 -466 -117 0
-115 -466 117 0
-115 466 116 0
116 467 -41 0
116 -467 -45 0
-116 -467 45 0
-116 467 41 0
117 467 -48 0
-117 -467 0
-117 48 0
118 -465 9 -122 0
118 465 9 -119 0
-118 -9 0
-118 -465 122 0
-118 465 119 0
-119 466 120 0
-119 -466 121 0
119 -466 -121 0
119 466 -120 0
-120 -467 60 0
-120 467 56 0
120 467 -56 0
120 -467 -60 0
121 467 -63 0
121 -467 -68 0
-121 -467 68 0
-121 467 63 0
122 466 -123 0
122 -466 -124 0
-122 -466 124 0
-122 466 123 0
123 467 -71 0
123 -467 -75 0
-123 -467 75 0
-123 467 71 0
124 467 -78 0
-124 -467 0
-124 78 0
125 -500 -501 133 0
125 -500 501 126 0
-125 500 0
-125 -501 -133 0
-125 501 -126 0
126 -465 9 -130 0
126 465 9 -127 0
-126 -9 0
-126 -465 130 0
-126 465 127 0
-127 466 128 0
-127 -466 129 0
127 -466 -129 0
127 466 -128 0
-128 -467 86 0
-128 467 84 0
128 467 -84 0
128 -467 -86 0
129 467 -87 0
129 -467 -90 0
-129 -467 90 0
-129 467 87 0
130 466 -131 0
130 -466 -132 0
-130 -466 132 0
-130 466 131 0
131 467 -91 0
131 -467 -93 0
-131 -467 93 0
-131 467 91 0
132 467 468 469 -501 0
-132 501 0
-132 -469 0
-132 -467 0
-132 -468 0
133 -465 9 -137 0
133 465 9 -134 0
-133 -9 0
-133 -465 137 0
-133 465 134 0
-134 466 136 0
-134 -466 135 0
134 -466 -135 0
134 466 -136 0
135 467 -102 0
135 -467 -105 0
-135 -467 105 0
-135 467 102 0
136 467 -98 0
136 -467 -101 0
-136 -467 101 0
-136 467 98 0
137 466 -138 0
-137 -466 0
-137 138 0
138 467 -106 0
138 -467 -108 0
-138 -467 108 0
-138 467 106 0
139 499 -140 0
139 -499 -162 169 0
-139 -499 162 0
-139 499 140 0
-139 -499 -169 0
140 500 -141 0
140 -500 -150 0
-140 -500 150 0
-140 500 141 0
141 501 -142 0
141 -501 -145 0
-141 -501 145 0
-141 501 142 0
142 -465 9 -144 0
142 465 9 -143 0
-142 -9 0
-142 -465 144 0
-142 465 143 0
-143 -466 37 0
-143 466 29 0
143 466 -29 0
143 -466 -37 0
144 466 -44 0
-144 -466 0
-144 44 0
145 16 -146 147 148 0
-145 -148 0
-145 -16 0
-145 -147 0
-145 146 0
-146 465 -466 67 0
-146 465 466 59 0
146 -465 0
146 -466 -67 0
146 466 -59 0
-147 12 15 0
147 -12 0
147 -15 0
-148 465 10 0
-148 10 -149 0
148 -10 0
148 -465 149 0
149 466 -74 0
-149 -466 0
-149 74 0
150 501 -151 0
150 -501 -159 0
-150 -501 159 0
-150 501 151 0
151 466 152 -155 0
151 -89 152 -155 0
-151 155 0
-151 -152 0
-151 -466 89 0
-152 13 14 15 153 0
152 -153 0
152 -13 0
152 -15 0
152 -14 0
-153 446 447 154 0
153 -154 0
153 -447 0
153 -446 0
-154 445 19 0
154 -445 0
154 -19 0
155 448 156 -157 0
-155 157 0
-155 -156 0
-155 -448 0
-156 463 464 10 18 0
156 -463 0
156 -18 0
156 -10 0
156 -464 0
157 465 -466 0
157 -465 -158 0
157 465 -85 0
-157 -465 158 0
-157 465 466 85 0
158 466 -92 0
-158 -466 0
-158 92 0
159 465 9 -161 0
159 9 -160 -161 0
-159 161 0
-159 -9 0
-159 -465 160 0
160 466 -107 0
-160 -466 0
-160 107 0
161 -465 466 0
161 -466 -104 0
161 466 -100 0
-161 -466 104 0
-161 465 466 100 0
-162 500 -501 166 0
-162 500 501 163 0
162 -500 0
162 -501 -166 0
162 501 -163 0
163 465 9 -165 0
163 9 -164 -165 0
-163 165 0
-163 -9 0
-163 -465 164 0
164 466 -117 0
-164 -466 0
-164 117 0
165 -465 466 0
165 -466 -116 0
165 466 -114 0
-165 -466 116 0
-165 465 466 114 0
166 9 -121 168 0
166 9 -167 168 0
-166 -168 0
-166 -9 0
-166 121 167 0
-167 465 466 0
167 -465 0
167 -466 0
-168 466 -124 0
-168 465 -123 0
-168 465 466 0
168 -466 123 0
168 -465 124 0
168 -465 -466 0
169 -500 -501 177 0
169 -500 501 170 0
-169 500 0
-169 -501 -177 0
-169 501 -170 0
170 18 153 171 -175 0
-170 175 0
-170 -18 0
-170 -171 0
-170 -153 0
-171 466 172 174 0
-171 -131 172 174 0
171 -174 0
171 -172 0
171 -466 131 0
-172 463 464 10 173 0
172 -463 0
172 -173 0
172 -10 0
172 -464 0
-173 454 455 456 0
173 -454 0
173 -456 0
173 -455 0
-174 448 453 14 15 0
174 -448 0
174 -15 0
174 -14 0
174 -453 0
175 465 -466 0
175 -465 -176 0
175 465 -129 0
-175 -465 176 0
-175 465 466 129 0
176 466 -132 0
-176 -466 0
-176 132 0
177 466 -135 178 0
177 -466 -138 178 0
-177 -178 0
-177 -466 138 0
-177 466 135 0
-178 179 147 154 180 0
178 -180 0
178 -179 0
178 -154 0
178 -147 0
-179 446 447 448 0
179 -446 0
179 -448 0
179 -447 0
-180 465 10 18 0
180 -18 0
180 -10 0
180 -465 0
-181 182 185 187 189 0
181 -189 0
181 -182 0
181 -187 0
181 -185 0
-182 493 494 495 183 0
182 -183 0
182 -495 0
182 -493 0
182 -494 0
-183 477 489 490 184 0
183 -184 0
183 -490 0
183 -477 0
183 -489 0
-184 485 486 496 0
184 -485 0
184 -496 0
184 -486 0
-185 478 481 482 186 0
185 -186 0
185 -482 0
185 -478 0
185 -481 0
-186 471 472 475 476 0
186 -476 0
186 -475 0
186 -471 0
186 -472 0
-187 470 479 480 188 0
187 -188 0
187 -480 0
187 -470 0
187 -479 0
-188 473 474 487 0
188 -473 0
188 -487 0
188 -474 0
-189 483 484 492 190 0
189 -190 0
189 -492 0
189 -483 0
189 -484 0
-190 488 491 0
190 -488 0
190 -491 0
191 -497 -498 206 0
191 -497 498 192 0
-191 497 0
-191 -498 -206 0
-191 498 -192 0
192 499 -193 0
192 -499 -200 203 0
-192 -499 200 0
-192 499 193 0
-192 -499 -203 0
193 500 -194 0
193 -500 -197 0
-193 -500 197 0
-193 500 194 0
194 501 -195 0
194 -501 -196 0
-194 -501 196 0
-194 501 195 0
195 -36 178 0
-195 36 0
-195 -178 0
196 -66 178 0
-196 66 0
-196 -178 0
197 501 -198 0
197 -501 -199 0
-197 -501 199 0
-197 501 198 0
198 -88 178 0
-198 88 0
-198 -178 0
199 -103 178 0
-199 103 0
-199 -178 0
-200 500 -501 202 0
-200 500 501 201 0
200 -500 0
200 -501 -202 0
200 501 -201 0
201 -115 178 0
-201 115 0
-201 -178 0
202 -122 178 0
-202 122 0
-202 -178 0
203 -500 -501 205 0
203 -500 501 204 0
-203 500 0
-203 -501 -205 0
-203 501 -204 0
204 -130 178 0
-204 130 0
-204 -178 0
205 -137 178 0
-205 137 0
-205 -178 0
206 -499 -213 0
206 499 -207 210 0
-206 499 207 0
-206 -499 213 0
-206 499 -210 0
-207 500 -501 209 0
-207 500 501 208 0
207 -500 0
207 -501 -209 0
207 501 -208 0
208 -144 178 0
-208 144 0
-208 -178 0
209 -149 178 0
-209 149 0
-209 -178 0
210 -500 -501 212 0
210 -500 501 211 0
-210 500 0
-210 -501 -212 0
-210 501 -211 0
211 -158 178 0
-211 158 0
-211 -178 0
212 -160 178 0
-212 160 0
-212 -178 0
213 500 -501 -215 0
213 500 501 -214 0
-213 -500 0
-213 -501 215 0
-213 501 214 0
214 -164 178 0
-214 164 0
-214 -178 0
215 -216 178 0
-215 216 0
-215 -178 0
216 466 -124 0
-216 -466 0
-216 124 0
-217 440 218 220 0
217 -220 0
217 -218 0
217 -440 0
-218 441 17 19 219 0
218 -441 0
218 -219 0
218 -19 0
218 -17 0
-219 453 454 14 0
219 -14 0
219 -454 0
219 -453 0
-220 438 221 15 222 0
220 -438 0
220 -222 0
220 -15 0
220 -221 0
-221 463 464 0
221 -463 0
221 -464 0
-222 455 456 10 0
222 -10 0
222 -456 0
222 -455 0
-223 465 224 0
-223 -465 365 0
223 -465 -365 0
223 465 -224 0
-224 466 225 0
-224 -466 -355 0
-224 -466 340 0
224 466 -225 0
224 -466 -340 355 0
-225 467 226 0
-225 -467 -326 0
-225 -467 312 0
225 467 -226 0
225 -467 -312 326 0
-226 468 280 0
-226 -468 227 0
226 -468 -227 0
226 468 -280 0
227 469 -228 0
227 -469 -255 0
-227 -469 255 0
-227 469 228 0
228 -497 181 -244 0
228 497 181 -229 0
-228 -181 0
-228 -497 244 0
-228 497 229 0
-229 498 230 0
-229 -498 237 0
229 -498 -237 0
229 498 -230 0
-230 499 231 0
-230 -499 234 0
230 -499 -234 0
230 499 -231 0
-231 500 233 0
-231 -500 232 0
231 -500 -232 0
231 500 -233 0
232 -476 -501 0
232 -475 501 0
-232 475 501 0
-232 476 -501 0
233 -474 -501 0
233 -473 501 0
-233 473 501 0
-233 474 -501 0
234 500 -235 0
234 -500 -236 0
-234 -500 236 0
-234 500 235 0
235 -478 -501 0
235 -477 501 0
-235 477 501 0
-235 478 -501 0
236 -480 -501 0
236 -479 501 0
-236 479 501 0
-236 480 -501 0
237 499 -238 0
237 -499 -241 0
-237 -499 241 0
-237 499 238 0
238 500 -239 0
238 -500 -240 0
-238 -500 240 0
-238 500 239 0
239 -482 -501 0
239 -481 501 0
-239 481 501 0
-239 482 -501 0
240 -484 -501 0
240 -483 501 0
-240 483 501 0
-240 484 -501 0
241 500 -242 0
241 -500 -243 0
-241 -500 243 0
-241 500 242 0
242 -486 -501 0
242 -485 501 0
-242 485 501 0
-242 486 -501 0
243 -488 -501 0
243 -487 501 0
-243 487 501 0
-243 488 -501 0
244 498 -245 0
244 -498 -252 0
-244 -498 252 0
-244 498 245 0
245 499 -246 0
245 -499 -249 0
-245 -499 249 0
-245 499 246 0
246 500 -247 0
246 -500 -248 0
-246 -500 248 0
-246 500 247 0
247 -490 -501 0
247 -489 501 0
-247 489 501 0
-247 490 -501 0
248 -492 -501 0
248 -491 501 0
-248 491 501 0
-248 492 -501 0
249 500 -250 0
249 -500 -251 0
-249 -500 251 0
-249 500 250 0
250 -494 -501 0
250 -493 501 0
-250 493 501 0
-250 494 -501 0
251 -496 -501 0
251 -495 501 0
-251 495 501 0
-251 496 -501 0
252 499 -253 0
-252 -499 0
-252 253 0
253 -499 -500 0
253 500 -254 0
253 -500 -501 0
-253 500 254 0
-253 499 -500 501 0
254 -498 -501 0
254 -497 501 0
-254 497 501 0
-254 498 -501 0
255 -497 181 -271 0
255 497 181 -256 0
-255 -181 0
-255 -497 271 0
-255 497 256 0
-256 498 257 0
-256 -498 264 0
256 -498 -264 0
256 498 -257 0
-257 499 261 0
-257 -499 258 0
257 -499 -258 0
257 499 -261 0
258 500 -259 0
258 -500 -260 0
-258 -500 260 0
-258 500 259 0
259 -479 -501 0
259 -478 501 0
-259 478 501 0
-259 479 -501 0
260 -481 -501 0
260 -480 501 0
-260 480 501 0
-260 481 -501 0
261 500 -262 0
261 -500 -263 0
-261 -500 263 0
-261 500 262 0
262 -475 -501 0
262 -474 501 0
-262 474 501 0
-262 475 -501 0
263 -477 -501 0
263 -476 501 0
-263 476 501 0
-263 477 -501 0
264 499 -265 0
264 -499 -268 0
-264 -499 268 0
-264 499 265 0
265 500 -266 0
265 -500 -267 0
-265 -500 267 0
-265 500 266 0
266 -483 -501 0
266 -482 501 0
-266 482 501 0
-266 483 -501 0
267 -485 -501 0
267 -484 501 0
-267 484 501 0
-267 485 -501 0
268 500 -269 0
268 -500 -270 0
-268 -500 270 0
-268 500 269 0
269 -487 -501 0
269 -486 501 0
-269 486 501 0
-269 487 -501 0
270 -489 -501 0
270 -488 501 0
-270 488 501 0
-270 489 -501 0
271 498 -272 0
271 -498 -279 0
-271 -498 279 0
-271 498 272 0
272 499 -273 0
272 -499 -276 0
-272 -499 276 0
-272 499 273 0
273 500 -274 0
273 -500 -275 0
-273 -500 275 0
-273 500 274 0
274 -491 -501 0
274 -490 501 0
-274 490 501 0
-274 491 -501 0
275 -493 -501 0
275 -492 501 0
-275 492 501 0
-275 493 -501 0
276 500 -277 0
276 -500 -278 0
-276 -500 278 0
-276 500 277 0
277 -495 -501 0
277 -494 501 0
-277 494 501 0
-277 495 -501 0
278 -497 -501 0
278 -496 501 0
-278 496 501 0
-278 497 -501 0
279 499 -500 0
279 -498 499 501 0
-279 -499 0
-279 500 -501 0
-279 498 500 0
280 -469 -296 0
280 469 181 -281 0
-280 -469 296 0
-280 469 -181 0
-280 469 281 0
-281 497 282 0
-281 -497 290 0
281 -497 -290 0
281 497 -282 0
-282 498 283 0
-282 -498 287 0
282 -498 -287 0
282 498 -283 0
-283 499 284 0
-283 -499 286 0
283 -499 -286 0
283 499 -284 0
-284 500 285 0
-284 -500 233 0
284 -500 -233 0
284 500 -285 0
285 -472 -501 0
285 -471 501 0
-285 471 501 0
-285 472 -501 0
286 500 -232 0
286 -500 -235 0
-286 -500 235 0
-286 500 232 0
287 499 -288 0
287 -499 -289 0
-287 -499 289 0
-287 499 288 0
288 500 -236 0
288 -500 -239 0
-288 -500 239 0
-288 500 236 0
289 500 -240 0
289 -500 -242 0
-289 -500 242 0
-289 500 240 0
290 498 -291 0
290 -498 -294 0
-290 -498 294 0
-290 498 291 0
291 499 -292 0
291 -499 -293 0
-291 -499 293 0
-291 499 292 0
292 500 -243 0
292 -500 -247 0
-292 -500 247 0
-292 500 243 0
293 500 -248 0
293 -500 -250 0
-293 -500 250 0
-293 500 248 0
-294 -499 -500 0
-294 499 295 0
-294 -499 -501 0
294 499 -295 0
294 -499 500 501 0
295 500 -251 0
295 -500 -254 0
-295 -500 254 0
-295 500 251 0
296 -497 181 -305 0
296 497 181 -297 0
-296 -181 0
-296 -497 305 0
-296 497 297 0
-297 498 298 0
-297 -498 302 0
297 -498 -302 0
297 498 -298 0
-298 499 299 0
-298 -499 301 0
298 -499 -301 0
298 499 -299 0
-299 500 300 0
-299 -500 262 0
299 -500 -262 0
299 500 -300 0
300 -473 -501 0
300 -472 501 0
-300 472 501 0
-300 473 -501 0
301 -500 -259 0
301 500 -263 0
-301 500 263 0
-301 -500 259 0
302 499 -303 0
302 -499 -304 0
-302 -499 304 0
-302 499 303 0
303 500 -260 0
303 -500 -266 0
-303 -500 266 0
-303 500 260 0
304 500 -267 0
304 -500 -269 0
-304 -500 269 0
-304 500 267 0
305 498 -306 0
305 -498 -309 0
-305 -498 309 0
-305 498 306 0
306 499 -307 0
306 -499 -308 0
-306 -499 308 0
-306 499 307 0
307 500 -270 0
307 -500 -274 0
-307 -500 274 0
-307 500 270 0
308 500 -275 0
308 -500 -277 0
-308 -500 277 0
-308 500 275 0
309 499 -310 0
309 -499 500 -501 0
-309 -499 -500 0
-309 499 310 0
-309 -499 501 0
310 500 -278 0
310 -500 -311 0
-310 -500 311 0
-310 500 278 0
311 -499 -501 0
311 -498 501 0
-311 498 501 0
-311 499 -501 0
-312 468 -469 319 0
-312 468 469 313 0
312 -468 0
312 -469 -319 0
312 469 -313 0
313 -497 181 -317 0
313 497 181 -314 0
-313 -181 0
-313 -497 317 0
-313 497 314 0
314 498 -315 0
314 -498 -316 0
-314 -498 316 0
-314 498 315 0
315 499 -286 0
315 -499 -288 0
-315 -499 288 0
-315 499 286 0
316 499 -289 0
316 -499 -292 0
-316 -499 292 0
-316 499 289 0
317 498 -318 0
-317 -498 0
-317 318 0
318 499 -293 0
318 -499 -295 0
-318 -499 295 0
-318 499 293 0
319 -497 181 -323 0
319 497 181 -320 0
-319 -181 0
-319 -497 323 0
-319 497 320 0
-320 498 321 0
-320 -498 322 0
320 -498 -322 0
320 498 -321 0
-321 -499 303 0
-321 499 301 0
321 499 -301 0
321 -499 -303 0
322 499 -304 0
322 -499 -307 0
-322 -499 307 0
-322 499 304 0
323 498 -324 0
323 -498 -325 0
-323 -498 325 0
-323 498 324 0
324 499 -308 0
324 -499 -310 0
-324 -499 310 0
-324 499 308 0
325 499 500 -501 0
-325 501 0
-325 -500 0
-325 -499 0
326 -468 -469 333 0
326 -468 469 327 0
-326 468 0
-326 -469 -333 0
-326 469 -327 0
327 -497 181 -331 0
327 497 181 -328 0
-327 -181 0
-327 -497 331 0
-327 497 328 0
328 498 -329 0
328 -498 -330 0
-328 -498 330 0
-328 498 329 0
329 499 -234 0
329 -499 -238 0
-329 -499 238 0
-329 499 234 0
330 499 -241 0
330 -499 -246 0
-330 -499 246 0
-330 499 241 0
331 498 -332 0
-331 -498 0
-331 332 0
332 -499 -500 0
332 499 -249 0
332 -499 -254 0
-332 499 249 0
-332 -499 500 254 0
333 -497 181 -337 0
333 497 181 -334 0
-333 -181 0
-333 -497 337 0
-333 497 334 0
334 498 -335 0
334 -498 -336 0
-334 -498 336 0
-334 498 335 0
335 499 -258 0
335 -499 -265 0
-335 -499 265 0
-335 499 258 0
336 499 -268 0
336 -499 -273 0
-336 -499 273 0
-336 499 268 0
337 498 -338 0
-337 -498 0
-337 338 0
338 499 -276 0
338 -499 -339 0
-338 -499 339 0
-338 499 276 0
-339 499 500 -501 0
-339 498 500 501 0
339 -500 0
339 -498 501 0
339 -499 -501 0
-340 467 -468 348 0
-340 467 468 341 0
340 -467 0
340 -468 -348 0
340 468 -341 0
341 469 -342 0
341 -469 -345 0
-341 -469 345 0
-341 469 342 0
342 -497 181 -344 0
342 497 181 -343 0
-342 -181 0
-342 -497 344 0
-342 497 343 0
343 498 -287 0
343 -498 -291 0
-343 -498 291 0
-343 498 287 0
344 498 -294 0
-344 -498 0
-344 294 0
345 -497 181 -347 0
345 497 181 -346 0
-345 -181 0
-345 -497 347 0
-345 497 346 0
346 498 -302 0
346 -498 -306 0
-346 -498 306 0
-346 498 302 0
347 498 -309 0
-347 -498 0
-347 309 0
348 469 -349 0
348 -469 -352 0
-348 -469 352 0
-348 469 349 0
349 -497 181 -351 0
349 497 181 -350 0
-349 -181 0
-349 -497 351 0
-349 497 350 0
350 498 -237 0
350 -498 -245 0
-350 -498 245 0
-350 498 237 0
351 498 -252 0
-351 -498 0
-351 252 0
352 -497 181 -354 0
352 497 181 -353 0
-352 -181 0
-352 -497 354 0
-352 497 353 0
353 498 -264 0
353 -498 -272 0
-353 -498 272 0
-353 498 264 0
354 498 499 -500 0
-354 500 0
-354 -499 0
-354 -498 0
355 -467 -468 362 0
355 -467 468 356 0
-355 467 0
-355 -468 -362 0
-355 468 -356 0
356 469 -357 0
356 -469 -359 0
-356 -469 359 0
-356 469 357 0
357 498 -316 358 0
357 -498 -318 358 0
-357 -358 0
-357 -498 318 0
-357 498 316 0
-358 497 181 0
358 -497 0
358 -181 0
359 -497 181 -361 0
359 497 181 -360 0
-359 -181 0
-359 -497 361 0
-359 497 360 0
360 498 -322 0
360 -498 -324 0
-360 -498 324 0
-360 498 322 0
361 498 499 500 -501 0
-361 501 0
-361 -500 0
-361 -498 0
-361 -499 0
362 469 -363 0
362 -469 -364 0
-362 -469 364 0
-362 469 363 0
363 498 -330 358 0
363 -498 -332 358 0
-363 -358 0
-363 -498 332 0
-363 498 330 0
364 498 -336 358 0
364 -498 -338 358 0
-364 -358 0
-364 -498 338 0
-364 498 336 0
365 466 -366 0
365 -466 -378 385 0
-365 -466 378 0
-365 466 366 0
-365 -466 -385 0
366 -467 -373 0
366 467 -367 370 0
-366 467 367 0
-366 -467 373 0
-366 467 -370 0
-367 468 -469 369 0
-367 468 469 368 0
367 -468 0
367 -469 -369 0
367 469 -368 0
368 -290 358 0
-368 290 0
-368 -358 0
369 -305 358 0
-369 305 0
-369 -358 0
370 -468 -469 372 0
370 -468 469 371 0
-370 468 0
-370 -469 -372 0
-370 469 -371 0
371 -244 358 0
-371 244 0
-371 -358 0
372 -271 358 0
-372 271 0
-372 -358 0
373 -468 -375 0
373 468 -469 -374 0
-373 -468 375 0
-373 468 374 0
-373 468 469 0
374 -323 358 0
-374 323 0
-374 -358 0
375 469 -376 0
375 -469 -377 0
-375 -469 377 0
-375 469 376 0
376 -331 358 0
-376 331 0
-376 -358 0
377 -337 358 0
-377 337 0
-377 -358 0
-378 467 -468 382 0
-378 467 468 379 0
378 -467 0
378 -468 -382 0
378 468 -379 0
379 469 -380 0
379 -469 -381 0
-379 -469 381 0
-379 469 380 0
380 -344 358 0
-380 344 0
-380 -358 0
381 -347 358 0
-381 347 0
-381 -358 0
382 469 -383 0
382 -469 -384 0
-382 -469 384 0
-382 469 383 0
383 -351 358 0
-383 351 0
-383 -358 0
384 498 499 -500 358 0
-384 -498 0
-384 -358 0
-384 500 0
-384 -499 0
385 -467 -468 0
385 -467 386 0
385 -467 469 0
-385 467 0
-385 468 -469 -386 0
386 358 -361 0
-386 -358 0
-386 361 0
-387 440 -401 0
-387 440 -181 0
-387 440 388 0
387 -440 0
387 181 -388 401 0
-388 497 -498 395 0
-388 497 498 389 0
388 -497 0
388 -498 -395 0
388 498 -389 0
389 499 -390 0
389 -499 -393 394 0
-389 -499 393 0
-389 499 390 0
-389 -499 -394 0
390 500 -391 0
390 -500 -392 0
-390 -500 392 0
-390 500 391 0
391 501 -50 0
391 -501 -80 0
-391 -501 80 0
-391 501 50 0
392 501 -95 0
392 -501 -111 0
-392 -501 111 0
-392 501 95 0
-393 500 -501 126 0
-393 500 501 118 0
393 -500 0
393 -501 -126 0
393 501 -118 0
394 -500 -501 142 0
394 -500 501 133 0
-394 500 0
-394 -501 -142 0
-394 501 -133 0
395 499 -396 0
395 -499 -399 400 0
-395 -499 399 0
-395 499 396 0
-395 -499 -400 0
396 500 -397 0
396 -500 -398 0
-396 -500 398 0
-396 500 397 0
397 501 -145 0
397 -501 -151 0
-397 -501 151 0
-397 501 145 0
398 501 -159 0
398 -501 -163 0
-398 -501 163 0
-398 501 159 0
-399 500 -501 170 0
-399 500 501 166 0
399 -500 0
399 -501 -170 0
399 501 -166 0
400 -500 -501 195 0
400 -500 501 177 0
-400 500 0
-400 -501 -195 0
-400 501 -177 0
401 -497 -498 408 0
401 -497 498 402 0
-401 497 0
-401 -498 -408 0
-401 498 -402 0
402 499 -403 0
402 -499 -406 407 0
-402 -499 406 0
-402 499 403 0
-402 -499 -407 0
403 500 -404 0
403 -500 -405 0
-403 -500 405 0
-403 500 404 0
404 501 -196 0
404 -501 -198 0
-404 -501 198 0
-404 501 196 0
405 501 -199 0
405 -501 -201 0
-405 -501 201 0
-405 501 199 0
-406 500 -501 204 0
-406 500 501 202 0
406 -500 0
406 -501 -204 0
406 501 -202 0
407 -500 -501 208 0
407 -500 501 205 0
-407 500 0
-407 -501 -208 0
-407 501 -205 0
408 499 -409 0
408 -499 500 -412 0
-408 -499 -500 0
-408 499 409 0
-408 -499 412 0
409 500 -410 0
409 -500 -411 0
-409 -500 411 0
-409 500 410 0
410 501 -209 0
410 -501 -211 0
-410 -501 211 0
-410 501 209 0
411 501 -212 0
411 -501 -214 0
-411 -501 214 0
-411 501 212 0
412 501 -216 178 0
412 -501 -176 178 0
-412 -178 0
-412 -501 176 0
-412 501 216 0
413 -465 414 -428 0
413 465 414 -415 0
-413 -414 0
-413 -465 428 0
-413 465 415 0
-414 439 218 220 0
414 -220 0
414 -218 0
414 -439 0
-415 466 416 0
-415 -466 -425 0
-415 -466 422 0
415 466 -416 0
415 -466 -422 425 0
-416 467 417 0
-416 -467 -421 0
-416 -467 420 0
416 467 -417 0
416 -467 -420 421 0
-417 468 419 0
-417 -468 418 0
417 -468 -418 0
417 468 -419 0
418 469 -255 0
418 -469 -313 0
-418 -469 313 0
-418 469 255 0
419 -469 -228 0
419 469 -296 0
-419 469 296 0
-419 -469 228 0
-420 468 -469 327 0
-420 468 469 319 0
420 -468 0
420 -469 -327 0
420 469 -319 0
421 -468 -469 342 0
421 -468 469 333 0
-421 468 0
-421 -469 -342 0
-421 469 -333 0
-422 467 -468 424 0
-422 467 468 423 0
422 -467 0
422 -468 -424 0
422 468 -423 0
423 469 -345 0
423 -469 -349 0
-423 -469 349 0
-423 469 345 0
424 469 -352 0
424 -469 -357 0
-424 -469 357 0
-424 469 352 0
425 -467 -468 427 0
425 -467 468 426 0
-425 467 0
-425 -468 -427 0
-425 468 -426 0
426 469 -359 0
426 -469 -363 0
-426 -469 363 0
-426 469 359 0
427 469 -364 0
427 -469 -368 0
-427 -469 368 0
-427 469 364 0
428 466 -429 0
428 -466 -434 0
-428 -466 434 0
-428 466 429 0
429 467 -430 0
429 -467 -432 433 0
-429 -467 432 0
-429 467 430 0
-429 -467 -433 0
430 468 -431 0
430 -468 469 -372 0
-430 -468 -469 0
-430 468 431 0
-430 -468 372 0
431 469 -369 0
431 -469 -371 0
-431 -469 371 0
-431 469 369 0
-432 468 -469 376 0
-432 468 469 374 0
432 -468 0
432 -469 -376 0
432 469 -374 0
433 -468 -469 380 0
433 -468 469 377 0
-433 468 0
-433 -469 -380 0
-433 469 -377 0
434 467 -435 0
434 -467 468 -437 0
-434 -467 -468 0
-434 467 435 0
-434 -467 437 0
435 468 -436 0
435 -468 469 -384 0
-435 -468 -469 0
-435 468 436 0
-435 -468 384 0
436 469 -381 0
436 -469 -383 0
-436 -469 383 0
-436 469 381 0
437 469 -386 0
-437 -469 0
-437 386 0
-502 0
2 0

